Tasks lengths
[90, 90, 91, 100, 148, 159, 218, 256, 282, 517]
3
Using license file /home/benedond/gurobi.lic
Using gurobi.env file
Set parameter Threads to value 1
Academic license - for non-commercial use only
Changed value of parameter TimeLimit to 300.0
   Prev: inf  Min: 0.0  Max: inf  Default: inf
Gurobi Optimizer version 9.0.1 build v9.0.1rc0 (linux64)
Optimize a model with 44 rows, 33 columns and 127 nonzeros
Model fingerprint: 0x9aa68004
Model has 30 quadratic objective terms
Variable types: 3 continuous, 30 integer (30 binary)
Coefficient statistics:
  Matrix range     [1e+00, 5e+02]
  Objective range  [0e+00, 0e+00]
  QObjective range [2e-03, 2e-02]
  Bounds range     [1e+00, 1e+00]
  RHS range        [1e+00, 3e+02]
Presolve removed 40 rows and 29 columns
Presolve time: 0.00s
Presolved: 8 rows, 8 columns, 21 nonzeros
Variable types: 6 continuous, 2 integer (2 binary)

Root relaxation: objective 2.665498e+00, 3 iterations, 0.00 seconds

    Nodes    |    Current Node    |     Objective Bounds      |     Work
 Expl Unexpl |  Obj  Depth IntInf | Incumbent    BestBd   Gap | It/Node Time

     0     0    2.66550    0    2          -    2.66550      -     -    0s
H    0     0                       3.1863664    2.66550  16.3%     -    0s

Explored 1 nodes (3 simplex iterations) in 0.00 seconds
Thread count was 1 (of 4 available processors)

Solution count 1: 3.18637 

Optimal solution found (tolerance 1.00e-04)
Best objective 3.186366406206e+00, best bound 3.186366406206e+00, gap 0.0000%
